(set-logic ALL)
(declare-fun var0 () String)
(assert (str.in_re var0 (re.++ (re.* (re.+ (str.to_re "0"))) (re.++ (re.union (re.* (str.to_re "111")) (re.* (str.to_re "2"))) (re.++ (re.union (re.* (str.to_re "33")) (re.* (str.to_re "444"))) (re.++ (re.union (re.* (str.to_re "5")) (re.* (str.to_re "66"))) (re.++ (re.union (re.+ (str.to_re "77")) (re.+ (str.to_re "8"))) (re.++ (re.+ (re.+ (str.to_re "99"))) (re.++ (re.+ (re.+ (str.to_re "aaa"))) (re.++ (re.* (re.* (str.to_re "b"))) (re.++ (re.* (re.+ (str.to_re "cc"))) (re.++ (re.* (re.union (str.to_re "dd") (str.to_re "ee"))) (re.++ (re.* (re.* (str.to_re "f"))) (re.++ (re.* (re.union (str.to_re "ggg") (str.to_re "h"))) (re.++ (re.+ (re.* (str.to_re "iii"))) (re.++ (re.union (re.+ (str.to_re "jjj")) (re.+ (str.to_re "kk"))) (re.++ (re.* (re.* (str.to_re "lll"))) (re.++ (re.union (re.+ (str.to_re "mmm")) (re.+ (str.to_re "nnn"))) (re.++ (re.union (re.union (str.to_re "ooo") (str.to_re "pp")) (re.union (str.to_re "qq") (str.to_re "rr"))) (re.++ (re.* (re.union (str.to_re "s") (str.to_re "tt"))) (re.++ (re.union (re.union (str.to_re "u") (str.to_re "vv")) (re.union (str.to_re "www") (str.to_re "xx"))) (re.++ (re.+ (re.* (str.to_re "y"))) (re.++ (re.union (re.union (str.to_re "z") (str.to_re "AAA")) (re.union (str.to_re "B") (str.to_re "CC"))) (re.++ (re.* (re.* (str.to_re "D"))) (re.++ (re.union (re.+ (str.to_re "EE")) (re.+ (str.to_re "F"))) (re.++ (re.union (re.union (str.to_re "G") (str.to_re "HHH")) (re.union (str.to_re "I") (str.to_re "JJ"))) (re.++ (re.* (re.+ (str.to_re "KKK"))) (re.++ (re.+ (re.* (str.to_re "LLL"))) (re.++ (re.* (re.* (str.to_re "MM"))) (re.++ (re.+ (re.+ (str.to_re "NN"))) (re.++ (re.+ (re.union (str.to_re "OO") (str.to_re "P"))) (re.++ (re.* (re.union (str.to_re "QQQ") (str.to_re "R"))) (re.++ (re.* (re.union (str.to_re "SS") (str.to_re "T"))) (re.++ (re.union (re.+ (str.to_re "UUU")) (re.+ (str.to_re "VV"))) (re.++ (re.+ (re.+ (str.to_re "WWW"))) (re.++ (re.* (re.+ (str.to_re "XX"))) (re.++ (re.+ (re.* (str.to_re "Y"))) (re.++ (re.* (re.* (str.to_re "ZZZ"))) (re.++ (re.* (re.+ (str.to_re "!!!"))) (re.++ (re.union (re.union (str.to_re """") (str.to_re "##")) (re.union (str.to_re "$$") (str.to_re "%%"))) (re.++ (re.+ (re.union (str.to_re "&") (str.to_re "'''"))) (re.++ (re.* (re.* (str.to_re "((("))) (re.++ (re.union (re.+ (str.to_re "))")) (re.+ (str.to_re "***"))) (re.++ (re.union (re.union (str.to_re "+++") (str.to_re ",,")) (re.union (str.to_re "-") (str.to_re "."))) (re.++ (re.* (re.union (str.to_re "///") (str.to_re ":"))) (re.++ (re.* (re.+ (str.to_re ";;;"))) (re.++ (re.union (re.+ (str.to_re "<<")) (re.+ (str.to_re "==="))) (re.++ (re.union (re.+ (str.to_re ">")) (re.+ (str.to_re "??"))) (re.++ (re.union (re.* (str.to_re "@@")) (re.* (str.to_re "[[["))) (re.++ (re.+ (re.* (str.to_re "\\"))) (re.++ (re.* (re.union (str.to_re "]]]") (str.to_re "^"))) (re.++ (re.* (re.* (str.to_re "___"))) (re.++ (re.union (re.union (str.to_re "``") (str.to_re "{{")) (re.union (str.to_re "|") (str.to_re "}}"))) (re.++ (re.union (re.+ (str.to_re "~~")) (re.+ (str.to_re "00"))) (re.++ (re.* (re.union (str.to_re "111") (str.to_re "222"))) (re.++ (re.* (re.* (str.to_re "33"))) (re.++ (re.union (re.* (str.to_re "444")) (re.* (str.to_re "5"))) (re.+ (re.* (str.to_re "666"))))))))))))))))))))))))))))))))))))))))))))))))))))))))))))
(assert (not (str.in_re var0 (re.++ (re.union (re.* (str.to_re "000")) (re.* (str.to_re "1"))) (re.++ (re.* (re.+ (str.to_re "22"))) (re.++ (re.+ (re.+ (str.to_re "33"))) (re.++ (re.+ (re.+ (str.to_re "4"))) (re.++ (re.+ (re.union (str.to_re "55") (str.to_re "66"))) (re.++ (re.* (re.+ (str.to_re "7"))) (re.++ (re.* (re.union (str.to_re "88") (str.to_re "9"))) (re.++ (re.union (re.* (str.to_re "aaa")) (re.* (str.to_re "b"))) (re.++ (re.union (re.* (str.to_re "cc")) (re.* (str.to_re "d"))) (re.++ (re.* (re.+ (str.to_re "e"))) (re.++ (re.* (re.* (str.to_re "fff"))) (re.++ (re.union (re.* (str.to_re "g")) (re.* (str.to_re "h"))) (re.++ (re.* (re.+ (str.to_re "ii"))) (re.++ (re.* (re.* (str.to_re "jj"))) (re.++ (re.union (re.+ (str.to_re "kk")) (re.+ (str.to_re "l"))) (re.++ (re.union (re.* (str.to_re "mmm")) (re.* (str.to_re "nn"))) (re.++ (re.+ (re.union (str.to_re "o") (str.to_re "pp"))) (re.++ (re.+ (re.union (str.to_re "qq") (str.to_re "rrr"))) (re.++ (re.+ (re.union (str.to_re "s") (str.to_re "t"))) (re.++ (re.* (re.* (str.to_re "uu"))) (re.++ (re.+ (re.+ (str.to_re "vvv"))) (re.++ (re.* (re.+ (str.to_re "www"))) (re.++ (re.union (re.+ (str.to_re "xxx")) (re.+ (str.to_re "yy"))) (re.++ (re.union (re.* (str.to_re "zz")) (re.* (str.to_re "A"))) (re.++ (re.+ (re.* (str.to_re "BBB"))) (re.++ (re.+ (re.* (str.to_re "C"))) (re.++ (re.* (re.+ (str.to_re "DDD"))) (re.++ (re.* (re.+ (str.to_re "EEE"))) (re.++ (re.+ (re.* (str.to_re "F"))) (re.++ (re.* (re.union (str.to_re "GGG") (str.to_re "HH"))) (re.++ (re.union (re.union (str.to_re "I") (str.to_re "J")) (re.union (str.to_re "KKK") (str.to_re "LL"))) (re.++ (re.* (re.* (str.to_re "M"))) (re.++ (re.* (re.* (str.to_re "N"))) (re.++ (re.union (re.* (str.to_re "OOO")) (re.* (str.to_re "PP"))) (re.++ (re.* (re.* (str.to_re "QQQ"))) (re.++ (re.+ (re.+ (str.to_re "RR"))) (re.++ (re.+ (re.+ (str.to_re "SSS"))) (re.++ (re.* (re.+ (str.to_re "T"))) (re.++ (re.+ (re.union (str.to_re "UUU") (str.to_re "VVV"))) (re.++ (re.union (re.+ (str.to_re "WW")) (re.+ (str.to_re "XXX"))) (re.++ (re.union (re.+ (str.to_re "YY")) (re.+ (str.to_re "ZZZ"))) (re.++ (re.+ (re.+ (str.to_re "!!"))) (re.++ (re.* (re.* (str.to_re """"""))) (re.++ (re.+ (re.* (str.to_re "###"))) (re.++ (re.union (re.union (str.to_re "$") (str.to_re "%%")) (re.union (str.to_re "&") (str.to_re "''"))) (re.++ (re.* (re.union (str.to_re "(((") (str.to_re "))"))) (re.++ (re.* (re.* (str.to_re "**"))) (re.++ (re.* (re.+ (str.to_re "+"))) (re.++ (re.+ (re.union (str.to_re ",,") (str.to_re "-"))) (re.++ (re.union (re.* (str.to_re "...")) (re.* (str.to_re "//"))) (re.++ (re.+ (re.* (str.to_re "::"))) (re.++ (re.+ (re.+ (str.to_re ";"))) (re.++ (re.* (re.* (str.to_re "<<<"))) (re.++ (re.union (re.union (str.to_re "===") (str.to_re ">>")) (re.union (str.to_re "??") (str.to_re "@@@"))) (re.++ (re.+ (re.* (str.to_re "[["))) (re.+ (re.* (str.to_re "\\")))))))))))))))))))))))))))))))))))))))))))))))))))))))))))))
(check-sat)